examples/dynamic/debug4/InVarSynth_MonadicInvariant01.bpl_Iteration1_0.smt2
(set-info :smt-lib-version 2.6)
(set-logic QF_NRA)

(set-info :category "industrial")
(set-info :status sat)
(declare-fun liipp_0_c () Real)
(declare-fun liipp_0__main_offset () Real)
(declare-fun liipp_0__main_length () Real)
(declare-fun liipp_1_c () Real)
(declare-fun liipp_1__main_offset () Real)
(declare-fun liipp_1__main_length () Real)
(declare-fun liipp_2_c () Real)
(declare-fun liipp_2__main_offset () Real)
(declare-fun liipp_2__main_length () Real)
(declare-fun liipp_3_c () Real)
(declare-fun liipp_3__main_offset () Real)
(declare-fun liipp_3__main_length () Real)
(declare-fun liipp_4_replace_0 () Real)
(declare-fun liipp_4_replace_1 () Real)
(declare-fun liipp_5_replace_0 () Real)
(declare-fun liipp_5_replace_1 () Real)
(declare-fun motzkin_6304_0 () Real)
(declare-fun motzkin_6304_1 () Real)
(declare-fun motzkin_6304_2 () Real)
(declare-fun motzkin_6304_3 () Real)
(declare-fun motzkin_6304_4 () Real)
(declare-fun motzkin_6305_0 () Real)
(declare-fun motzkin_6305_1 () Real)
(declare-fun motzkin_6305_2 () Real)
(declare-fun motzkin_6305_3 () Real)
(declare-fun motzkin_6305_4 () Real)
(assert (and (>= motzkin_6304_0 0.0) (>= motzkin_6304_1 0.0) (>= motzkin_6304_2 0.0) (>= motzkin_6304_3 0.0) (>= motzkin_6304_4 0.0) (= (+ motzkin_6304_0 (* motzkin_6304_1 (- 1.0)) (* motzkin_6304_4 (+ (* (- 1.0) liipp_0__main_offset) 0.0))) 0.0) (= (+ motzkin_6304_2 (* motzkin_6304_3 (- 1.0)) (* motzkin_6304_4 (+ (* (- 1.0) liipp_0__main_length) 0.0))) 0.0) (<= (+ (* motzkin_6304_2 (- 40000.0)) (* motzkin_6304_3 40000.0) (* motzkin_6304_4 (+ (* (- 1.0) liipp_0_c) 0.0))) 0.0) (or (< (+ (* motzkin_6304_2 (- 40000.0)) (* motzkin_6304_3 40000.0) (* motzkin_6304_4 (+ (* (- 1.0) liipp_0_c) 0.0))) 0.0) (> 0.0 0.0)) (>= motzkin_6305_0 0.0) (>= motzkin_6305_1 0.0) (>= motzkin_6305_2 0.0) (>= motzkin_6305_3 0.0) (>= motzkin_6305_4 0.0) (= (+ motzkin_6305_0 (* motzkin_6305_1 (- 1.0)) (* motzkin_6305_4 (+ (* (- 1.0) liipp_1__main_offset) 0.0))) 0.0) (= (+ motzkin_6305_2 (* motzkin_6305_3 (- 1.0)) (* motzkin_6305_4 (+ (* (- 1.0) liipp_1__main_length) 0.0))) 0.0) (<= (+ (* motzkin_6305_2 (- 40000.0)) (* motzkin_6305_3 40000.0) (* motzkin_6305_4 (+ (* (- 1.0) liipp_1_c) 0.0))) 0.0) (or (< (+ (* motzkin_6305_2 (- 40000.0)) (* motzkin_6305_3 40000.0)) 0.0) (> motzkin_6305_4 0.0))))
(declare-fun motzkin_6306_0 () Real)
(declare-fun motzkin_6306_1 () Real)
(declare-fun motzkin_6306_2 () Real)
(declare-fun motzkin_6306_3 () Real)
(declare-fun motzkin_6307_0 () Real)
(declare-fun motzkin_6307_1 () Real)
(declare-fun motzkin_6307_2 () Real)
(declare-fun motzkin_6307_3 () Real)
(assert (and (>= motzkin_6306_0 0.0) (>= motzkin_6306_1 0.0) (>= motzkin_6306_2 0.0) (>= motzkin_6306_3 0.0) (= (+ (* motzkin_6306_0 (- 1.0)) (* motzkin_6306_1 (+ (* (- 1.0) liipp_2__main_offset) 0.0)) (* motzkin_6306_2 (+ (* 1.0 liipp_0__main_offset) 0.0)) (* motzkin_6306_3 (+ (* 1.0 liipp_1__main_offset) 0.0))) 0.0) (= (+ motzkin_6306_0 (* motzkin_6306_1 (+ (* (- 1.0) liipp_2__main_length) 0.0)) (* motzkin_6306_2 (+ (* 1.0 liipp_0__main_length) 0.0)) (* motzkin_6306_3 (+ (* 1.0 liipp_1__main_length) 0.0))) 0.0) (<= (+ (* motzkin_6306_0 (- 1.0)) (* motzkin_6306_1 (+ (* (- 1.0) liipp_2_c) 0.0)) (* motzkin_6306_2 (+ (* 1.0 liipp_0_c) 0.0)) (* motzkin_6306_3 (+ (* 1.0 liipp_1_c) 0.0))) 0.0) (or (< (+ (* motzkin_6306_0 (- 1.0)) (* motzkin_6306_1 (+ (* (- 1.0) liipp_2_c) 0.0)) (* motzkin_6306_3 (+ (* 1.0 liipp_1_c) 0.0))) 0.0) (> motzkin_6306_2 0.0)) (>= motzkin_6307_0 0.0) (>= motzkin_6307_1 0.0) (>= motzkin_6307_2 0.0) (>= motzkin_6307_3 0.0) (= (+ (* motzkin_6307_0 (- 1.0)) (* motzkin_6307_1 (+ (* (- 1.0) liipp_3__main_offset) 0.0)) (* motzkin_6307_2 (+ (* 1.0 liipp_0__main_offset) 0.0)) (* motzkin_6307_3 (+ (* 1.0 liipp_1__main_offset) 0.0))) 0.0) (= (+ motzkin_6307_0 (* motzkin_6307_1 (+ (* (- 1.0) liipp_3__main_length) 0.0)) (* motzkin_6307_2 (+ (* 1.0 liipp_0__main_length) 0.0)) (* motzkin_6307_3 (+ (* 1.0 liipp_1__main_length) 0.0))) 0.0) (<= (+ (* motzkin_6307_0 (- 1.0)) (* motzkin_6307_1 (+ (* (- 1.0) liipp_3_c) 0.0)) (* motzkin_6307_2 (+ (* 1.0 liipp_0_c) 0.0)) (* motzkin_6307_3 (+ (* 1.0 liipp_1_c) 0.0))) 0.0) (or (< (+ (* motzkin_6307_0 (- 1.0)) (* motzkin_6307_3 (+ (* 1.0 liipp_1_c) 0.0))) 0.0) (> (+ motzkin_6307_1 motzkin_6307_2) 0.0))))
(declare-fun motzkin_6308_0 () Real)
(declare-fun motzkin_6308_1 () Real)
(declare-fun motzkin_6308_2 () Real)
(assert (and (>= motzkin_6308_0 0.0) (>= motzkin_6308_1 0.0) (>= motzkin_6308_2 0.0) (= (+ motzkin_6308_0 (* motzkin_6308_1 (+ (* 1.0 liipp_2__main_offset) 0.0)) (* motzkin_6308_2 (+ (* 1.0 liipp_3__main_offset) 0.0))) 0.0) (= (+ (* motzkin_6308_0 (- 1.0)) (* motzkin_6308_1 (+ (* 1.0 liipp_2__main_length) 0.0)) (* motzkin_6308_2 (+ (* 1.0 liipp_3__main_length) 0.0))) 0.0) (<= (+ (* motzkin_6308_0 3.0) (* motzkin_6308_1 (+ (* 1.0 liipp_2_c) 0.0)) (* motzkin_6308_2 (+ (* 1.0 liipp_3_c) 0.0))) 0.0) (or (< (+ (* motzkin_6308_0 3.0) (* motzkin_6308_2 (+ (* 1.0 liipp_3_c) 0.0))) 0.0) (> motzkin_6308_1 0.0))))
(check-sat)
(exit)
